
Gurobi 10.0.1 (linux64) logging started Sun Nov 26 15:43:25 2023

Set parameter LogFile to value "ArtificialInstance/ExperimentV2/S2T5K1/BaRo/gurobi91.txt"
Gurobi Optimizer version 10.0.1 build v10.0.1rc0 (linux64)

CPU model: AMD EPYC 7H12 64-Core Processor, instruction set [SSE2|AVX|AVX2]
Thread count: 128 physical cores, 128 logical processors, using up to 32 threads

Academic license 656792 - for non-commercial use only - registered to b.___@student.vu.nl
Optimize a model with 1422 rows, 2161 columns and 7362 nonzeros
Model fingerprint: 0x515b4b89
Variable types: 1 continuous, 2160 integer (2160 binary)
Coefficient statistics:
  Matrix range     [1e+00, 4e+01]
  Objective range  [1e+00, 2e+01]
  Bounds range     [1e+00, 1e+00]
  RHS range        [1e+00, 1e+00]
Found heuristic solution: objective 497.9175029
Presolve time: 0.01s
Presolved: 1422 rows, 2161 columns, 7362 nonzeros
Variable types: 1 continuous, 2160 integer (2160 binary)

Root relaxation: objective 3.454021e+01, 1187 iterations, 0.03 seconds (0.02 work units)

    Nodes    |    Current Node    |     Objective Bounds      |     Work
 Expl Unexpl |  Obj  Depth IntInf | Incumbent    BestBd   Gap | It/Node Time

     0     0   34.54021    0  210  497.91750   34.54021  93.1%     -    0s
H    0     0                     162.0319821   34.54021  78.7%     -    0s
H    0     0                      64.3948644   34.54021  46.4%     -    0s
H    0     0                      55.3666793   38.06742  31.2%     -    0s
     0     0   38.06742    0  230   55.36668   38.06742  31.2%     -    0s
H    0     0                      45.0937692   38.06742  15.6%     -    0s
H    0     0                      44.4211528   39.39090  11.3%     -    0s
H    0     0                      44.4023158   39.39090  11.3%     -    0s
     0     0   39.39090    0  183   44.40232   39.39090  11.3%     -    0s
     0     0   40.66497    0  200   44.40232   40.66497  8.42%     -    0s
     0     0   40.66497    0  209   44.40232   40.66497  8.42%     -    0s
     0     0   40.66497    0  187   44.40232   40.66497  8.42%     -    0s
     0     0   40.66497    0  199   44.40232   40.66497  8.42%     -    0s
     0     0   40.66497    0  247   44.40232   40.66497  8.42%     -    0s
     0     0   41.10563    0  255   44.40232   41.10563  7.42%     -    0s
     0     0   41.49494    0  263   44.40232   41.49494  6.55%     -    0s
     0     0   41.66845    0  265   44.40232   41.66845  6.16%     -    0s
     0     0   44.40232    0  262   44.40232   44.40232  0.00%     -    0s

Cutting planes:
  Gomory: 5
  Zero half: 82
  RLT: 11

Explored 1 nodes (5260 simplex iterations) in 0.47 seconds (0.23 work units)
Thread count was 32 (of 128 available processors)

Solution count 7: 44.4023 44.4212 45.0938 ... 497.918

Optimal solution found (tolerance 1.00e-04)
Best objective 4.440231575453e+01, best bound 4.440231575453e+01, gap 0.0000%
